c User generated cnf file
p cnf 15 27
7 6 -14 0 
4 -12 10 0 
10 8 -12 0 
1 5 -4 0 
14 7 -9 0 
13 -14 1 0 
12 -4 7 0 
4 -1 15 0 
12 8 -5 0 
14 5 -2 0 
12 -12 13 0 
4 -11 5 0 
14 -8 6 0 
15 -14 2 0 
6 -5 9 0 
11 -3 8 0 
5 8 -5 0 
6 -2 2 0 
4 -13 8 0 
2 -7 8 0 
6 -1 5 0 
9 -9 12 0 
3 15 -4 0 
12 -11 11 0 
9 12 -5 0 
14 11 -10 0 
6 9 -5 0 
